
Gurobi 10.0.1 (linux64) logging started Sun Nov 26 15:37:26 2023

Set parameter LogFile to value "ArtificialInstance/ExperimentV2/S2T3K3/BaSp/gurobi1.txt"
Gurobi Optimizer version 10.0.1 build v10.0.1rc0 (linux64)

CPU model: AMD EPYC 7H12 64-Core Processor, instruction set [SSE2|AVX|AVX2]
Thread count: 128 physical cores, 128 logical processors, using up to 32 threads

Academic license 656792 - for non-commercial use only - registered to b.___@student.vu.nl
Optimize a model with 2050 rows, 3120 columns and 10400 nonzeros
Model fingerprint: 0xbab9971c
Variable types: 0 continuous, 3120 integer (3120 binary)
Coefficient statistics:
  Matrix range     [1e+00, 1e+00]
  Objective range  [2e+00, 2e+01]
  Bounds range     [1e+00, 1e+00]
  RHS range        [1e+00, 1e+00]
Found heuristic solution: objective 641.0328958
Presolve time: 0.01s
Presolved: 2050 rows, 3120 columns, 10400 nonzeros
Variable types: 0 continuous, 3120 integer (3120 binary)

Root relaxation: objective 3.985324e+01, 1448 iterations, 0.03 seconds (0.02 work units)

    Nodes    |    Current Node    |     Objective Bounds      |     Work
 Expl Unexpl |  Obj  Depth IntInf | Incumbent    BestBd   Gap | It/Node Time

     0     0   39.85324    0  336  641.03290   39.85324  93.8%     -    0s
H    0     0                     368.4770031   39.85324  89.2%     -    0s
H    0     0                     303.0928326   39.85324  86.9%     -    0s
H    0     0                     243.0990425   39.85324  83.6%     -    0s
H    0     0                      77.7450250   39.85324  48.7%     -    0s
H    0     0                      68.6458210   48.54214  29.3%     -    0s
     0     0   48.54214    0  487   68.64582   48.54214  29.3%     -    0s
H    0     0                      63.2415085   48.54214  23.2%     -    0s
     0     0   51.19109    0  580   63.24151   51.19109  19.1%     -    0s
     0     0   51.62466    0  562   63.24151   51.62466  18.4%     -    0s
     0     0   51.69124    0  591   63.24151   51.69124  18.3%     -    0s
     0     0   53.07280    0  669   63.24151   53.07280  16.1%     -    0s
     0     0   53.36464    0  612   63.24151   53.36464  15.6%     -    0s
     0     0   53.47993    0  627   63.24151   53.47993  15.4%     -    0s
     0     0   55.17313    0  604   63.24151   55.17313  12.8%     -    0s
     0     0   55.19237    0  638   63.24151   55.19237  12.7%     -    0s
     0     0   55.19567    0  658   63.24151   55.19567  12.7%     -    0s
     0     0   55.36935    0  621   63.24151   55.36935  12.4%     -    0s
     0     0   55.45508    0  618   63.24151   55.45508  12.3%     -    0s
     0     0   55.49110    0  603   63.24151   55.49110  12.3%     -    0s
     0     0   55.49126    0  599   63.24151   55.49126  12.3%     -    0s
     0     0   55.66940    0  653   63.24151   55.66940  12.0%     -    1s
     0     0   55.67944    0  673   63.24151   55.67944  12.0%     -    1s
     0     0   55.69353    0  667   63.24151   55.69353  11.9%     -    1s
     0     0   55.69353    0  670   63.24151   55.69353  11.9%     -    1s
     0     0   56.36802    0  661   63.24151   56.36802  10.9%     -    1s
     0     0   56.42939    0  665   63.24151   56.42939  10.8%     -    1s
     0     0   56.44325    0  681   63.24151   56.44325  10.7%     -    1s
     0     0   56.44403    0  683   63.24151   56.44403  10.7%     -    1s
     0     0   56.56658    0  693   63.24151   56.56658  10.6%     -    1s
     0     0   56.60925    0  694   63.24151   56.60925  10.5%     -    1s
     0     0   56.61889    0  677   63.24151   56.61889  10.5%     -    1s
     0     0   56.74668    0  671   63.24151   56.74668  10.3%     -    1s
     0     0   56.80575    0  637   63.24151   56.80575  10.2%     -    1s
     0     0   56.80575    0  332   63.24151   56.80575  10.2%     -    2s
     0     0   56.80575    0  693   63.24151   56.80575  10.2%     -    2s
     0     0   56.80575    0  692   63.24151   56.80575  10.2%     -    2s
     0     0   56.80575    0  691   63.24151   56.80575  10.2%     -    2s
     0     0   56.80575    0  672   63.24151   56.80575  10.2%     -    2s
     0     0   56.80575    0  657   63.24151   56.80575  10.2%     -    2s
     0     0   56.80575    0  669   63.24151   56.80575  10.2%     -    2s
     0     0   56.80575    0  688   63.24151   56.80575  10.2%     -    2s
     0     0   56.80575    0  691   63.24151   56.80575  10.2%     -    2s
     0     0   56.80575    0  698   63.24151   56.80575  10.2%     -    2s
     0     0   56.80575    0  689   63.24151   56.80575  10.2%     -    2s
     0     2   56.80687    0  679   63.24151   56.80687  10.2%     -    3s

Cutting planes:
  Gomory: 11
  Zero half: 98
  RLT: 52

Explored 183 nodes (43873 simplex iterations) in 4.18 seconds (2.58 work units)
Thread count was 32 (of 128 available processors)

Solution count 7: 63.2415 68.6458 77.745 ... 641.033

Optimal solution found (tolerance 1.00e-04)
Best objective 6.324150854663e+01, best bound 6.324150854663e+01, gap 0.0000%
